% File represents an instance of a Composite Structure problem to be solved by a CP framework
% Created on 2025-03-26 10:41:16.718
T = 52;
n = 9;
m = 12;
edges = [(1, 2),
(4, 5),
(7, 8),
(2, 3),
(6, 5),
(9, 8),
(1, 4),
(4, 7),
(2, 5),
(5, 8),
(6, 3),
(6, 9)];
counts = [|20, 4, 20, 8,
|18, 4, 18, 8,
|16, 4, 16, 6,
|18, 4, 18, 6,
|18, 2, 18, 4,
|18, 6, 18, 6,
|16, 4, 16, 6,
|16, 2, 16, 2,
|18, 4, 18, 2|];
